c Maximum weighted clique instances generated from exactcolors.
c cutoff: 4294967.
c A clique of value > scalef (4294967) defines an improving stable sets for coloring.
p edge 123 1
e 12 100
n 1 4294966
n 2 4294966
n 3 4294966
n 4 4294966
n 5 4294966
n 6 4294966
n 7 4294966
n 8 4294966
n 9 4294966
n 10 4294966
n 11 4294966
n 12 2147483
n 13 4294966
n 14 4294966
n 15 4294966
n 16 4294966
n 17 4294966
n 18 4294966
n 19 4294966
n 20 4294966
n 21 4294967
n 22 4294966
n 23 4294966
n 24 4294966
n 25 4294966
n 26 4294966
n 27 4294966
n 28 4294966
n 29 4294966
n 30 4294966
n 31 4294966
n 32 4294966
n 33 4294966
n 34 4294966
n 35 4294966
n 36 4294966
n 37 4294966
n 38 4294966
n 39 4294966
n 40 4294966
n 41 4294966
n 42 4294966
n 43 4294966
n 44 4294966
n 45 4294966
n 46 4294966
n 47 4294966
n 48 4294966
n 49 4294966
n 50 4294966
n 51 4294966
n 52 4294966
n 53 4294966
n 54 4294966
n 55 4294966
n 56 4294966
n 57 4294966
n 58 4294966
n 59 4294966
n 60 4294966
n 61 4294966
n 62 4294966
n 63 4294966
n 64 4294966
n 65 4294966
n 66 4294966
n 67 4294966
n 68 4294966
n 69 4294966
n 70 4294966
n 71 4294966
n 72 4294966
n 73 4294967
n 74 4294966
n 75 4294966
n 76 4294966
n 77 4294966
n 78 4294966
n 79 4294966
n 80 4294966
n 81 4294966
n 82 4294966
n 83 4294966
n 84 4294966
n 85 4294966
n 86 4294966
n 87 4294966
n 88 4294966
n 89 4294966
n 90 4294966
n 91 4294966
n 92 4294966
n 93 4294966
n 94 4294966
n 95 4294966
n 96 4294966
n 97 4294966
n 98 4294966
n 99 4294966
n 100 2147483
n 101 4294966
n 102 4294966
n 103 4294966
n 104 4294966
n 105 4294966
n 106 4294966
n 107 4294966
n 108 4294966
n 109 4294966
n 110 4294966
n 111 4294966
n 112 4294966
n 113 4294966
n 114 4294966
n 115 4294966
n 116 4294966
n 117 4294966
n 118 4294966
n 119 4294966
n 120 4294966
n 121 4294966
n 122 4294966
n 123 4294966
